(set-logic QF_S)
(declare-fun T_18 () Bool)
(declare-fun T_19 () Bool)
(declare-fun T_SELECT_4 () Bool)
(declare-fun I0_40 () Int)
(declare-fun I0_44 () Int)
(declare-fun I1_40 () Int)
(declare-fun I1_44 () Int)
(declare-fun I2_40 () Int)
(declare-fun I2_44 () Int)
(declare-fun PCTEMP_LHS_10 () Int)
(declare-fun T_1d () Int)
(declare-fun NEW_DGNode_281 () String)
(declare-fun NEW_DGNode_282 () String)
(declare-fun PCTEMP_LHS_14 () String)
(assert (= PCTEMP_LHS_14 NEW_DGNode_282))
(assert (= NEW_DGNode_282 NEW_DGNode_281))
(assert (not (str.in.re NEW_DGNode_282 (str.to.re "+"))))
(assert (not (str.in.re NEW_DGNode_281 (str.to.re "%"))))
(assert (= T_SELECT_4 (not (= PCTEMP_LHS_10 (- 1)))))
(assert T_19)
(assert (= T_19 (not T_18)))
(assert (= T_18 (= PCTEMP_LHS_10 (- 1))))
(assert (= I0_40 (- PCTEMP_LHS_10 0)))
(assert (>= PCTEMP_LHS_10 0))
(assert (= I2_40 I1_40))
(assert (<= PCTEMP_LHS_10 I1_40))
(assert (= T_1d (+ PCTEMP_LHS_10 1)))
(assert (>= T_1d 0))
(assert (>= I2_44 T_1d))
(assert (= I2_44 I1_44))
(assert (<= I2_44 I1_44))
(assert (= I0_44 (- I2_44 T_1d)))
(assert (= I0_44 (str.len PCTEMP_LHS_14))) ; len 0
(check-sat)
